368,305
540,212
573,193
539,360
716,358
708,321
721,326
681,226
667,318
606,-68
723,140
1020,160
1162,161
829,429
762,566
830,700
803,646
505,648
552,805
364,842
575,512
624,388
663,349
799,424
972,617
977,452
871,780
829,862
681,616
501,406
464,833
